WARNING: for repeatability, setting FPU to use double precision
============================[ Problem Statistics ]=============================
|                                                                             |
|  Number of variables:       1436378                                         |
|  Number of clauses:         4169962                                         |
|  Parse time:                   0.98 s                                       |
|                                                                             |
c ============================[ Search Statistics ]==============================
c | Conflicts |          ORIGINAL         |          LEARNT          | Progress |
c |           |    Vars  Clauses Literals |    Limit  Clauses Lit/Cl |          |
c ===============================================================================
c Switched to VSIDS.
c Switched to LRB.
c Switched to VSIDS.
c Switched to LRB.
c Switched to VSIDS.
c Switched to LRB.
c Switched to VSIDS.
c Switched to LRB.
c Switched to VSIDS.
c Switched to LRB.
c Switched to VSIDS.
c Switched to LRB.
c Switched to VSIDS.
c Switched to LRB.
c Switched to VSIDS.
c Switched to LRB.
c Switched to VSIDS.
c Switched to LRB.
c Switched to VSIDS.
c Switched to LRB.
c Switched to VSIDS.
c Switched to LRB.
c Switched to VSIDS.
c Switched to LRB.
c Switched to VSIDS.
c Switched to LRB.
c Switched to VSIDS.
c Switched to LRB.
c Switched to VSIDS.
c Switched to LRB.
c Switched to VSIDS.
c ===============================================================================
restarts                  : 625
conflicts                 : 188539         (53 /sec)
decisions                 : 5390634        (0.00 % random) (1503 /sec)
propagations              : 7184049637     (2003532 /sec)
conflict literals         : 431766171      (11.20 % deleted)

conflicts w/ DIP found    : 169080         (89.68 % of conflicts)
conflicts w/ dangerous DIP: 0              (0.00 % of conflicts)
conflicts w/ DIP-learning : 179            (0.09 % of conflicts)
decisions on ext vars     : 710            (0.01 % of decisions)
total ext vars            : 42          
tried delete ext vars     : 28          
deleted ext vars          : 28          
max ext vars              : 19          

Memory used               : 2024.00 MB
CPU time                  : 3585.69 s
DIP computation time      : 7.77775 s (0.22 % of total time)
ER_sel time               : 1.12006 s
ER_add time               : 0.000887 s
ER_delC time              : 0 s
ER_delV time              : 0.001115 s
ER_sub time               : 2.6625 s
ER_stat time              : 0 s

INDETERMINATE
